\ This file has been generated by DOcplex
\ ENCODING=ISO-8859-1
\Problem name: CPLEX_deployment

Minimize
 obj: PriceProv1 + PriceProv2 + PriceProv3 + PriceProv4 + PriceProv5
Subject To
 BasicAllocation_0: C1_VM1 + C1_VM2 + C1_VM3 + C1_VM4 + C1_VM5 >= 1
 BasicAllocation_1: C2_VM1 + C2_VM2 + C2_VM3 + C2_VM4 + C2_VM5 >= 1
 BasicAllocation_2: C3_VM1 + C3_VM2 + C3_VM3 + C3_VM4 + C3_VM5 >= 1
 BasicAllocation_3: C4_VM1 + C4_VM2 + C4_VM3 + C4_VM4 + C4_VM5 >= 1
 BasicAllocation_4: C5_VM1 + C5_VM2 + C5_VM3 + C5_VM4 + C5_VM5 >= 1
 Capacity_CPU_VM1: 4 C1_VM1 + 2 C2_VM1 + 4 C3_VM1 + 8 C4_VM1 + C5_VM1
                   - VM1_offer_CPU <= 0
 Capacity_Memory_VM1: 2048 C1_VM1 + 512 C2_VM1 + 2048 C3_VM1 + 16000 C4_VM1
                      + 256 C5_VM1 - VM1_offer_Memory <= 0
 Capacity_Storage_VM1: 500 C1_VM1 + 1000 C2_VM1 + 1000 C3_VM1 + 2000 C4_VM1
                       + 250 C5_VM1 - VM1_offer_Storage <= 0
 Capacity_CPU_VM2: 4 C1_VM2 + 2 C2_VM2 + 4 C3_VM2 + 8 C4_VM2 + C5_VM2
                   - VM2_offer_CPU <= 0
 Capacity_Memory_VM2: 2048 C1_VM2 + 512 C2_VM2 + 2048 C3_VM2 + 16000 C4_VM2
                      + 256 C5_VM2 - VM2_offer_Memory <= 0
 Capacity_Storage_VM2: 500 C1_VM2 + 1000 C2_VM2 + 1000 C3_VM2 + 2000 C4_VM2
                       + 250 C5_VM2 - VM2_offer_Storage <= 0
 Capacity_CPU_VM3: 4 C1_VM3 + 2 C2_VM3 + 4 C3_VM3 + 8 C4_VM3 + C5_VM3
                   - VM3_offer_CPU <= 0
 Capacity_Memory_VM3: 2048 C1_VM3 + 512 C2_VM3 + 2048 C3_VM3 + 16000 C4_VM3
                      + 256 C5_VM3 - VM3_offer_Memory <= 0
 Capacity_Storage_VM3: 500 C1_VM3 + 1000 C2_VM3 + 1000 C3_VM3 + 2000 C4_VM3
                       + 250 C5_VM3 - VM3_offer_Storage <= 0
 Capacity_CPU_VM4: 4 C1_VM4 + 2 C2_VM4 + 4 C3_VM4 + 8 C4_VM4 + C5_VM4
                   - VM4_offer_CPU <= 0
 Capacity_Memory_VM4: 2048 C1_VM4 + 512 C2_VM4 + 2048 C3_VM4 + 16000 C4_VM4
                      + 256 C5_VM4 - VM4_offer_Memory <= 0
 Capacity_Storage_VM4: 500 C1_VM4 + 1000 C2_VM4 + 1000 C3_VM4 + 2000 C4_VM4
                       + 250 C5_VM4 - VM4_offer_Storage <= 0
 Capacity_CPU_VM5: 4 C1_VM5 + 2 C2_VM5 + 4 C3_VM5 + 8 C4_VM5 + C5_VM5
                   - VM5_offer_CPU <= 0
 Capacity_Memory_VM5: 2048 C1_VM5 + 512 C2_VM5 + 2048 C3_VM5 + 16000 C4_VM5
                      + 256 C5_VM5 - VM5_offer_Memory <= 0
 Capacity_Storage_VM5: 500 C1_VM5 + 1000 C2_VM5 + 1000 C3_VM5 + 2000 C4_VM5
                       + 250 C5_VM5 - VM5_offer_Storage <= 0
 lc1: _bool#1 = 1 <-> C1_VM1 + C2_VM1 + C3_VM1 + C4_VM1 + C5_VM1 >= 1
 Occupancy_0: _bool#1 = 1 -> VM_1 = 1
 lc3: _bool#2 = 1 <-> C1_VM2 + C2_VM2 + C3_VM2 + C4_VM2 + C5_VM2 >= 1
 Occupancy_1: _bool#2 = 1 -> VM_2 = 1
 lc5: _bool#3 = 1 <-> C1_VM3 + C2_VM3 + C3_VM3 + C4_VM3 + C5_VM3 >= 1
 Occupancy_2: _bool#3 = 1 -> VM_3 = 1
 lc7: _bool#4 = 1 <-> C1_VM4 + C2_VM4 + C3_VM4 + C4_VM4 + C5_VM4 >= 1
 Occupancy_3: _bool#4 = 1 -> VM_4 = 1
 lc9: _bool#5 = 1 <-> C1_VM5 + C2_VM5 + C3_VM5 + C4_VM5 + C5_VM5 >= 1
 Occupancy_4: _bool#5 = 1 -> VM_5 = 1
 lc11: _bool#6 = 1 <-> VM1_Offer1 + VM_1 = 2
 Link_Price_VM0_Off0: _bool#6 = 1 -> PriceProv1 = 8403
 Link_CPU_VM1_Off0: _bool#6 = 1 -> VM1_offer_CPU = 64
 Link_Mem_VM1_Off0: _bool#6 = 1 -> VM1_offer_Memory = 976000
 Link_Sto_VM1_Off0: _bool#6 = 1 -> VM1_offer_Storage = 1000
 lc16: _bool#7 = 1 <-> VM1_Offer2 + VM_1 = 2
 Link_Price_VM0_Off1: _bool#7 = 1 -> PriceProv1 = 9152
 Link_CPU_VM1_Off1: _bool#7 = 1 -> VM1_offer_CPU = 64
 Link_Mem_VM1_Off1: _bool#7 = 1 -> VM1_offer_Memory = 488000
 Link_Sto_VM1_Off1: _bool#7 = 1 -> VM1_offer_Storage = 8000
 lc21: _bool#8 = 1 <-> VM1_Offer3 + VM_1 = 2
 Link_Price_VM0_Off2: _bool#8 = 1 -> PriceProv1 = 16000
 Link_CPU_VM1_Off2: _bool#8 = 1 -> VM1_offer_CPU = 64
 Link_Mem_VM1_Off2: _bool#8 = 1 -> VM1_offer_Memory = 1952
 Link_Sto_VM1_Off2: _bool#8 = 1 -> VM1_offer_Storage = 1000
 lc26: _bool#9 = 1 <-> VM1_Offer4 + VM_1 = 2
 Link_Price_VM0_Off3: _bool#9 = 1 -> PriceProv1 = 4105
 Link_CPU_VM1_Off3: _bool#9 = 1 -> VM1_offer_CPU = 32
 Link_Mem_VM1_Off3: _bool#9 = 1 -> VM1_offer_Memory = 244000
 Link_Sto_VM1_Off3: _bool#9 = 1 -> VM1_offer_Storage = 2000
 lc31: _bool#10 = 1 <-> VM1_Offer5 + VM_1 = 2
 Link_Price_VM0_Off4: _bool#10 = 1 -> PriceProv1 = 4576
 Link_CPU_VM1_Off4: _bool#10 = 1 -> VM1_offer_CPU = 32
 Link_Mem_VM1_Off4: _bool#10 = 1 -> VM1_offer_Memory = 244000
 Link_Sto_VM1_Off4: _bool#10 = 1 -> VM1_offer_Storage = 4000
 lc36: _bool#11 = 1 <-> VM1_Offer6 + VM_1 = 2
 Link_Price_VM0_Off5: _bool#11 = 1 -> PriceProv1 = 1373
 Link_CPU_VM1_Off5: _bool#11 = 1 -> VM1_offer_CPU = 16
 Link_Mem_VM1_Off5: _bool#11 = 1 -> VM1_offer_Memory = 122000
 Link_Sto_VM1_Off5: _bool#11 = 1 -> VM1_offer_Storage = 2000
 lc41: _bool#12 = 1 <-> VM1_Offer7 + VM_1 = 2
 Link_Price_VM0_Off6: _bool#12 = 1 -> PriceProv1 = 1430
 Link_CPU_VM1_Off6: _bool#12 = 1 -> VM1_offer_CPU = 16
 Link_Mem_VM1_Off6: _bool#12 = 1 -> VM1_offer_Memory = 30000
 Link_Sto_VM1_Off6: _bool#12 = 1 -> VM1_offer_Storage = 2000
 lc46: _bool#13 = 1 <-> VM1_Offer8 + VM_1 = 2
 Link_Price_VM0_Off7: _bool#13 = 1 -> PriceProv1 = 5400
 Link_CPU_VM1_Off7: _bool#13 = 1 -> VM1_offer_CPU = 17
 Link_Mem_VM1_Off7: _bool#13 = 1 -> VM1_offer_Memory = 117000
 Link_Sto_VM1_Off7: _bool#13 = 1 -> VM1_offer_Storage = 24000
 lc51: _bool#14 = 1 <-> VM1_Offer9 + VM_1 = 2
 Link_Price_VM0_Off8: _bool#14 = 1 -> PriceProv1 = 3079
 Link_CPU_VM1_Off8: _bool#14 = 1 -> VM1_offer_CPU = 16
 Link_Mem_VM1_Off8: _bool#14 = 1 -> VM1_offer_Memory = 122000
 Link_Sto_VM1_Off8: _bool#14 = 1 -> VM1_offer_Storage = 1000
 lc56: _bool#15 = 1 <-> VM1_Offer10 + VM_1 = 2
 Link_Price_VM0_Off9: _bool#15 = 1 -> PriceProv1 = 1470
 Link_CPU_VM1_Off9: _bool#15 = 1 -> VM1_offer_CPU = 8
 Link_Mem_VM1_Off9: _bool#15 = 1 -> VM1_offer_Memory = 61000
 Link_Sto_VM1_Off9: _bool#15 = 1 -> VM1_offer_Storage = 6000
 lc61: _bool#16 = 1 <-> VM1_Offer11 + VM_1 = 2
 Link_Price_VM0_Off10: _bool#16 = 1 -> PriceProv1 = 1301
 Link_CPU_VM1_Off10: _bool#16 = 1 -> VM1_offer_CPU = 8
 Link_Mem_VM1_Off10: _bool#16 = 1 -> VM1_offer_Memory = 68400
 Link_Sto_VM1_Off10: _bool#16 = 1 -> VM1_offer_Storage = 2000
 lc66: _bool#17 = 1 <-> VM1_Offer12 + VM_1 = 2
 Link_Price_VM0_Off11: _bool#17 = 1 -> PriceProv1 = 1288
 Link_CPU_VM1_Off11: _bool#17 = 1 -> VM1_offer_CPU = 8
 Link_Mem_VM1_Off11: _bool#17 = 1 -> VM1_offer_Memory = 68400
 Link_Sto_VM1_Off11: _bool#17 = 1 -> VM1_offer_Storage = 2000
 lc71: _bool#18 = 1 <-> VM1_Offer13 + VM_1 = 2
 Link_Price_VM0_Off12: _bool#18 = 1 -> PriceProv1 = 402
 Link_CPU_VM1_Off12: _bool#18 = 1 -> VM1_offer_CPU = 4
 Link_Mem_VM1_Off12: _bool#18 = 1 -> VM1_offer_Memory = 15000
 Link_Sto_VM1_Off12: _bool#18 = 1 -> VM1_offer_Storage = 2000
 lc76: _bool#19 = 1 <-> VM1_Offer14 + VM_1 = 2
 Link_Price_VM0_Off13: _bool#19 = 1 -> PriceProv1 = 827
 Link_CPU_VM1_Off13: _bool#19 = 1 -> VM1_offer_CPU = 4
 Link_Mem_VM1_Off13: _bool#19 = 1 -> VM1_offer_Memory = 30500
 Link_Sto_VM1_Off13: _bool#19 = 1 -> VM1_offer_Storage = 3000
 lc81: _bool#20 = 1 <-> VM1_Offer15 + VM_1 = 2
 Link_Price_VM0_Off14: _bool#20 = 1 -> PriceProv1 = 379
 Link_CPU_VM1_Off14: _bool#20 = 1 -> VM1_offer_CPU = 4
 Link_Mem_VM1_Off14: _bool#20 = 1 -> VM1_offer_Memory = 30500
 Link_Sto_VM1_Off14: _bool#20 = 1 -> VM1_offer_Storage = 1000
 lc86: _bool#21 = 1 <-> VM1_Offer16 + VM_1 = 2
 Link_Price_VM0_Off15: _bool#21 = 1 -> PriceProv1 = 146
 Link_CPU_VM1_Off15: _bool#21 = 1 -> VM1_offer_CPU = 2
 Link_Mem_VM1_Off15: _bool#21 = 1 -> VM1_offer_Memory = 7500
 Link_Sto_VM1_Off15: _bool#21 = 1 -> VM1_offer_Storage = 1000
 lc91: _bool#22 = 1 <-> VM1_Offer17 + VM_1 = 2
 Link_Price_VM0_Off16: _bool#22 = 1 -> PriceProv1 = 128
 Link_CPU_VM1_Off16: _bool#22 = 1 -> VM1_offer_CPU = 2
 Link_Mem_VM1_Off16: _bool#22 = 1 -> VM1_offer_Memory = 3750
 Link_Sto_VM1_Off16: _bool#22 = 1 -> VM1_offer_Storage = 2000
 lc96: _bool#23 = 1 <-> VM1_Offer18 + VM_1 = 2
 Link_Price_VM0_Off17: _bool#23 = 1 -> PriceProv1 = 58
 Link_CPU_VM1_Off17: _bool#23 = 1 -> VM1_offer_CPU = 1
 Link_Mem_VM1_Off17: _bool#23 = 1 -> VM1_offer_Memory = 1700
 Link_Sto_VM1_Off17: _bool#23 = 1 -> VM1_offer_Storage = 1000
 lc101: _bool#24 = 1 <-> VM1_Offer19 + VM_1 = 2
 Link_Price_VM0_Off18: _bool#24 = 1 -> PriceProv1 = 93
 Link_CPU_VM1_Off18: _bool#24 = 1 -> VM1_offer_CPU = 1
 Link_Mem_VM1_Off18: _bool#24 = 1 -> VM1_offer_Memory = 3750
 Link_Sto_VM1_Off18: _bool#24 = 1 -> VM1_offer_Storage = 1000
 lc106: _bool#25 = 1 <-> VM1_Offer20 + VM_1 = 2
 Link_Price_VM0_Off19: _bool#25 = 1 -> PriceProv1 = 98
 Link_CPU_VM1_Off19: _bool#25 = 1 -> VM1_offer_CPU = 1
 Link_Mem_VM1_Off19: _bool#25 = 1 -> VM1_offer_Memory = 3750
 Link_Sto_VM1_Off19: _bool#25 = 1 -> VM1_offer_Storage = 1000
 lc111: _bool#26 = 1 <-> VM2_Offer1 + VM_2 = 2
 Link_Price_VM1_Off0: _bool#26 = 1 -> PriceProv2 = 8403
 Link_CPU_VM2_Off0: _bool#26 = 1 -> VM2_offer_CPU = 64
 Link_Mem_VM2_Off0: _bool#26 = 1 -> VM2_offer_Memory = 976000
 Link_Sto_VM2_Off0: _bool#26 = 1 -> VM2_offer_Storage = 1000
 lc116: _bool#27 = 1 <-> VM2_Offer2 + VM_2 = 2
 Link_Price_VM1_Off1: _bool#27 = 1 -> PriceProv2 = 9152
 Link_CPU_VM2_Off1: _bool#27 = 1 -> VM2_offer_CPU = 64
 Link_Mem_VM2_Off1: _bool#27 = 1 -> VM2_offer_Memory = 488000
 Link_Sto_VM2_Off1: _bool#27 = 1 -> VM2_offer_Storage = 8000
 lc121: _bool#28 = 1 <-> VM2_Offer3 + VM_2 = 2
 Link_Price_VM1_Off2: _bool#28 = 1 -> PriceProv2 = 16000
 Link_CPU_VM2_Off2: _bool#28 = 1 -> VM2_offer_CPU = 64
 Link_Mem_VM2_Off2: _bool#28 = 1 -> VM2_offer_Memory = 1952
 Link_Sto_VM2_Off2: _bool#28 = 1 -> VM2_offer_Storage = 1000
 lc126: _bool#29 = 1 <-> VM2_Offer4 + VM_2 = 2
 Link_Price_VM1_Off3: _bool#29 = 1 -> PriceProv2 = 4105
 Link_CPU_VM2_Off3: _bool#29 = 1 -> VM2_offer_CPU = 32
 Link_Mem_VM2_Off3: _bool#29 = 1 -> VM2_offer_Memory = 244000
 Link_Sto_VM2_Off3: _bool#29 = 1 -> VM2_offer_Storage = 2000
 lc131: _bool#30 = 1 <-> VM2_Offer5 + VM_2 = 2
 Link_Price_VM1_Off4: _bool#30 = 1 -> PriceProv2 = 4576
 Link_CPU_VM2_Off4: _bool#30 = 1 -> VM2_offer_CPU = 32
 Link_Mem_VM2_Off4: _bool#30 = 1 -> VM2_offer_Memory = 244000
 Link_Sto_VM2_Off4: _bool#30 = 1 -> VM2_offer_Storage = 4000
 lc136: _bool#31 = 1 <-> VM2_Offer6 + VM_2 = 2
 Link_Price_VM1_Off5: _bool#31 = 1 -> PriceProv2 = 1373
 Link_CPU_VM2_Off5: _bool#31 = 1 -> VM2_offer_CPU = 16
 Link_Mem_VM2_Off5: _bool#31 = 1 -> VM2_offer_Memory = 122000
 Link_Sto_VM2_Off5: _bool#31 = 1 -> VM2_offer_Storage = 2000
 lc141: _bool#32 = 1 <-> VM2_Offer7 + VM_2 = 2
 Link_Price_VM1_Off6: _bool#32 = 1 -> PriceProv2 = 1430
 Link_CPU_VM2_Off6: _bool#32 = 1 -> VM2_offer_CPU = 16
 Link_Mem_VM2_Off6: _bool#32 = 1 -> VM2_offer_Memory = 30000
 Link_Sto_VM2_Off6: _bool#32 = 1 -> VM2_offer_Storage = 2000
 lc146: _bool#33 = 1 <-> VM2_Offer8 + VM_2 = 2
 Link_Price_VM1_Off7: _bool#33 = 1 -> PriceProv2 = 5400
 Link_CPU_VM2_Off7: _bool#33 = 1 -> VM2_offer_CPU = 17
 Link_Mem_VM2_Off7: _bool#33 = 1 -> VM2_offer_Memory = 117000
 Link_Sto_VM2_Off7: _bool#33 = 1 -> VM2_offer_Storage = 24000
 lc151: _bool#34 = 1 <-> VM2_Offer9 + VM_2 = 2
 Link_Price_VM1_Off8: _bool#34 = 1 -> PriceProv2 = 3079
 Link_CPU_VM2_Off8: _bool#34 = 1 -> VM2_offer_CPU = 16
 Link_Mem_VM2_Off8: _bool#34 = 1 -> VM2_offer_Memory = 122000
 Link_Sto_VM2_Off8: _bool#34 = 1 -> VM2_offer_Storage = 1000
 lc156: _bool#35 = 1 <-> VM2_Offer10 + VM_2 = 2
 Link_Price_VM1_Off9: _bool#35 = 1 -> PriceProv2 = 1470
 Link_CPU_VM2_Off9: _bool#35 = 1 -> VM2_offer_CPU = 8
 Link_Mem_VM2_Off9: _bool#35 = 1 -> VM2_offer_Memory = 61000
 Link_Sto_VM2_Off9: _bool#35 = 1 -> VM2_offer_Storage = 6000
 lc161: _bool#36 = 1 <-> VM2_Offer11 + VM_2 = 2
 Link_Price_VM1_Off10: _bool#36 = 1 -> PriceProv2 = 1301
 Link_CPU_VM2_Off10: _bool#36 = 1 -> VM2_offer_CPU = 8
 Link_Mem_VM2_Off10: _bool#36 = 1 -> VM2_offer_Memory = 68400
 Link_Sto_VM2_Off10: _bool#36 = 1 -> VM2_offer_Storage = 2000
 lc166: _bool#37 = 1 <-> VM2_Offer12 + VM_2 = 2
 Link_Price_VM1_Off11: _bool#37 = 1 -> PriceProv2 = 1288
 Link_CPU_VM2_Off11: _bool#37 = 1 -> VM2_offer_CPU = 8
 Link_Mem_VM2_Off11: _bool#37 = 1 -> VM2_offer_Memory = 68400
 Link_Sto_VM2_Off11: _bool#37 = 1 -> VM2_offer_Storage = 2000
 lc171: _bool#38 = 1 <-> VM2_Offer13 + VM_2 = 2
 Link_Price_VM1_Off12: _bool#38 = 1 -> PriceProv2 = 402
 Link_CPU_VM2_Off12: _bool#38 = 1 -> VM2_offer_CPU = 4
 Link_Mem_VM2_Off12: _bool#38 = 1 -> VM2_offer_Memory = 15000
 Link_Sto_VM2_Off12: _bool#38 = 1 -> VM2_offer_Storage = 2000
 lc176: _bool#39 = 1 <-> VM2_Offer14 + VM_2 = 2
 Link_Price_VM1_Off13: _bool#39 = 1 -> PriceProv2 = 827
 Link_CPU_VM2_Off13: _bool#39 = 1 -> VM2_offer_CPU = 4
 Link_Mem_VM2_Off13: _bool#39 = 1 -> VM2_offer_Memory = 30500
 Link_Sto_VM2_Off13: _bool#39 = 1 -> VM2_offer_Storage = 3000
 lc181: _bool#40 = 1 <-> VM2_Offer15 + VM_2 = 2
 Link_Price_VM1_Off14: _bool#40 = 1 -> PriceProv2 = 379
 Link_CPU_VM2_Off14: _bool#40 = 1 -> VM2_offer_CPU = 4
 Link_Mem_VM2_Off14: _bool#40 = 1 -> VM2_offer_Memory = 30500
 Link_Sto_VM2_Off14: _bool#40 = 1 -> VM2_offer_Storage = 1000
 lc186: _bool#41 = 1 <-> VM2_Offer16 + VM_2 = 2
 Link_Price_VM1_Off15: _bool#41 = 1 -> PriceProv2 = 146
 Link_CPU_VM2_Off15: _bool#41 = 1 -> VM2_offer_CPU = 2
 Link_Mem_VM2_Off15: _bool#41 = 1 -> VM2_offer_Memory = 7500
 Link_Sto_VM2_Off15: _bool#41 = 1 -> VM2_offer_Storage = 1000
 lc191: _bool#42 = 1 <-> VM2_Offer17 + VM_2 = 2
 Link_Price_VM1_Off16: _bool#42 = 1 -> PriceProv2 = 128
 Link_CPU_VM2_Off16: _bool#42 = 1 -> VM2_offer_CPU = 2
 Link_Mem_VM2_Off16: _bool#42 = 1 -> VM2_offer_Memory = 3750
 Link_Sto_VM2_Off16: _bool#42 = 1 -> VM2_offer_Storage = 2000
 lc196: _bool#43 = 1 <-> VM2_Offer18 + VM_2 = 2
 Link_Price_VM1_Off17: _bool#43 = 1 -> PriceProv2 = 58
 Link_CPU_VM2_Off17: _bool#43 = 1 -> VM2_offer_CPU = 1
 Link_Mem_VM2_Off17: _bool#43 = 1 -> VM2_offer_Memory = 1700
 Link_Sto_VM2_Off17: _bool#43 = 1 -> VM2_offer_Storage = 1000
 lc201: _bool#44 = 1 <-> VM2_Offer19 + VM_2 = 2
 Link_Price_VM1_Off18: _bool#44 = 1 -> PriceProv2 = 93
 Link_CPU_VM2_Off18: _bool#44 = 1 -> VM2_offer_CPU = 1
 Link_Mem_VM2_Off18: _bool#44 = 1 -> VM2_offer_Memory = 3750
 Link_Sto_VM2_Off18: _bool#44 = 1 -> VM2_offer_Storage = 1000
 lc206: _bool#45 = 1 <-> VM2_Offer20 + VM_2 = 2
 Link_Price_VM1_Off19: _bool#45 = 1 -> PriceProv2 = 98
 Link_CPU_VM2_Off19: _bool#45 = 1 -> VM2_offer_CPU = 1
 Link_Mem_VM2_Off19: _bool#45 = 1 -> VM2_offer_Memory = 3750
 Link_Sto_VM2_Off19: _bool#45 = 1 -> VM2_offer_Storage = 1000
 lc211: _bool#46 = 1 <-> VM3_Offer1 + VM_3 = 2
 Link_Price_VM2_Off0: _bool#46 = 1 -> PriceProv3 = 8403
 Link_CPU_VM3_Off0: _bool#46 = 1 -> VM3_offer_CPU = 64
 Link_Mem_VM3_Off0: _bool#46 = 1 -> VM3_offer_Memory = 976000
 Link_Sto_VM3_Off0: _bool#46 = 1 -> VM3_offer_Storage = 1000
 lc216: _bool#47 = 1 <-> VM3_Offer2 + VM_3 = 2
 Link_Price_VM2_Off1: _bool#47 = 1 -> PriceProv3 = 9152
 Link_CPU_VM3_Off1: _bool#47 = 1 -> VM3_offer_CPU = 64
 Link_Mem_VM3_Off1: _bool#47 = 1 -> VM3_offer_Memory = 488000
 Link_Sto_VM3_Off1: _bool#47 = 1 -> VM3_offer_Storage = 8000
 lc221: _bool#48 = 1 <-> VM3_Offer3 + VM_3 = 2
 Link_Price_VM2_Off2: _bool#48 = 1 -> PriceProv3 = 16000
 Link_CPU_VM3_Off2: _bool#48 = 1 -> VM3_offer_CPU = 64
 Link_Mem_VM3_Off2: _bool#48 = 1 -> VM3_offer_Memory = 1952
 Link_Sto_VM3_Off2: _bool#48 = 1 -> VM3_offer_Storage = 1000
 lc226: _bool#49 = 1 <-> VM3_Offer4 + VM_3 = 2
 Link_Price_VM2_Off3: _bool#49 = 1 -> PriceProv3 = 4105
 Link_CPU_VM3_Off3: _bool#49 = 1 -> VM3_offer_CPU = 32
 Link_Mem_VM3_Off3: _bool#49 = 1 -> VM3_offer_Memory = 244000
 Link_Sto_VM3_Off3: _bool#49 = 1 -> VM3_offer_Storage = 2000
 lc231: _bool#50 = 1 <-> VM3_Offer5 + VM_3 = 2
 Link_Price_VM2_Off4: _bool#50 = 1 -> PriceProv3 = 4576
 Link_CPU_VM3_Off4: _bool#50 = 1 -> VM3_offer_CPU = 32
 Link_Mem_VM3_Off4: _bool#50 = 1 -> VM3_offer_Memory = 244000
 Link_Sto_VM3_Off4: _bool#50 = 1 -> VM3_offer_Storage = 4000
 lc236: _bool#51 = 1 <-> VM3_Offer6 + VM_3 = 2
 Link_Price_VM2_Off5: _bool#51 = 1 -> PriceProv3 = 1373
 Link_CPU_VM3_Off5: _bool#51 = 1 -> VM3_offer_CPU = 16
 Link_Mem_VM3_Off5: _bool#51 = 1 -> VM3_offer_Memory = 122000
 Link_Sto_VM3_Off5: _bool#51 = 1 -> VM3_offer_Storage = 2000
 lc241: _bool#52 = 1 <-> VM3_Offer7 + VM_3 = 2
 Link_Price_VM2_Off6: _bool#52 = 1 -> PriceProv3 = 1430
 Link_CPU_VM3_Off6: _bool#52 = 1 -> VM3_offer_CPU = 16
 Link_Mem_VM3_Off6: _bool#52 = 1 -> VM3_offer_Memory = 30000
 Link_Sto_VM3_Off6: _bool#52 = 1 -> VM3_offer_Storage = 2000
 lc246: _bool#53 = 1 <-> VM3_Offer8 + VM_3 = 2
 Link_Price_VM2_Off7: _bool#53 = 1 -> PriceProv3 = 5400
 Link_CPU_VM3_Off7: _bool#53 = 1 -> VM3_offer_CPU = 17
 Link_Mem_VM3_Off7: _bool#53 = 1 -> VM3_offer_Memory = 117000
 Link_Sto_VM3_Off7: _bool#53 = 1 -> VM3_offer_Storage = 24000
 lc251: _bool#54 = 1 <-> VM3_Offer9 + VM_3 = 2
 Link_Price_VM2_Off8: _bool#54 = 1 -> PriceProv3 = 3079
 Link_CPU_VM3_Off8: _bool#54 = 1 -> VM3_offer_CPU = 16
 Link_Mem_VM3_Off8: _bool#54 = 1 -> VM3_offer_Memory = 122000
 Link_Sto_VM3_Off8: _bool#54 = 1 -> VM3_offer_Storage = 1000
 lc256: _bool#55 = 1 <-> VM3_Offer10 + VM_3 = 2
 Link_Price_VM2_Off9: _bool#55 = 1 -> PriceProv3 = 1470
 Link_CPU_VM3_Off9: _bool#55 = 1 -> VM3_offer_CPU = 8
 Link_Mem_VM3_Off9: _bool#55 = 1 -> VM3_offer_Memory = 61000
 Link_Sto_VM3_Off9: _bool#55 = 1 -> VM3_offer_Storage = 6000
 lc261: _bool#56 = 1 <-> VM3_Offer11 + VM_3 = 2
 Link_Price_VM2_Off10: _bool#56 = 1 -> PriceProv3 = 1301
 Link_CPU_VM3_Off10: _bool#56 = 1 -> VM3_offer_CPU = 8
 Link_Mem_VM3_Off10: _bool#56 = 1 -> VM3_offer_Memory = 68400
 Link_Sto_VM3_Off10: _bool#56 = 1 -> VM3_offer_Storage = 2000
 lc266: _bool#57 = 1 <-> VM3_Offer12 + VM_3 = 2
 Link_Price_VM2_Off11: _bool#57 = 1 -> PriceProv3 = 1288
 Link_CPU_VM3_Off11: _bool#57 = 1 -> VM3_offer_CPU = 8
 Link_Mem_VM3_Off11: _bool#57 = 1 -> VM3_offer_Memory = 68400
 Link_Sto_VM3_Off11: _bool#57 = 1 -> VM3_offer_Storage = 2000
 lc271: _bool#58 = 1 <-> VM3_Offer13 + VM_3 = 2
 Link_Price_VM2_Off12: _bool#58 = 1 -> PriceProv3 = 402
 Link_CPU_VM3_Off12: _bool#58 = 1 -> VM3_offer_CPU = 4
 Link_Mem_VM3_Off12: _bool#58 = 1 -> VM3_offer_Memory = 15000
 Link_Sto_VM3_Off12: _bool#58 = 1 -> VM3_offer_Storage = 2000
 lc276: _bool#59 = 1 <-> VM3_Offer14 + VM_3 = 2
 Link_Price_VM2_Off13: _bool#59 = 1 -> PriceProv3 = 827
 Link_CPU_VM3_Off13: _bool#59 = 1 -> VM3_offer_CPU = 4
 Link_Mem_VM3_Off13: _bool#59 = 1 -> VM3_offer_Memory = 30500
 Link_Sto_VM3_Off13: _bool#59 = 1 -> VM3_offer_Storage = 3000
 lc281: _bool#60 = 1 <-> VM3_Offer15 + VM_3 = 2
 Link_Price_VM2_Off14: _bool#60 = 1 -> PriceProv3 = 379
 Link_CPU_VM3_Off14: _bool#60 = 1 -> VM3_offer_CPU = 4
 Link_Mem_VM3_Off14: _bool#60 = 1 -> VM3_offer_Memory = 30500
 Link_Sto_VM3_Off14: _bool#60 = 1 -> VM3_offer_Storage = 1000
 lc286: _bool#61 = 1 <-> VM3_Offer16 + VM_3 = 2
 Link_Price_VM2_Off15: _bool#61 = 1 -> PriceProv3 = 146
 Link_CPU_VM3_Off15: _bool#61 = 1 -> VM3_offer_CPU = 2
 Link_Mem_VM3_Off15: _bool#61 = 1 -> VM3_offer_Memory = 7500
 Link_Sto_VM3_Off15: _bool#61 = 1 -> VM3_offer_Storage = 1000
 lc291: _bool#62 = 1 <-> VM3_Offer17 + VM_3 = 2
 Link_Price_VM2_Off16: _bool#62 = 1 -> PriceProv3 = 128
 Link_CPU_VM3_Off16: _bool#62 = 1 -> VM3_offer_CPU = 2
 Link_Mem_VM3_Off16: _bool#62 = 1 -> VM3_offer_Memory = 3750
 Link_Sto_VM3_Off16: _bool#62 = 1 -> VM3_offer_Storage = 2000
 lc296: _bool#63 = 1 <-> VM3_Offer18 + VM_3 = 2
 Link_Price_VM2_Off17: _bool#63 = 1 -> PriceProv3 = 58
 Link_CPU_VM3_Off17: _bool#63 = 1 -> VM3_offer_CPU = 1
 Link_Mem_VM3_Off17: _bool#63 = 1 -> VM3_offer_Memory = 1700
 Link_Sto_VM3_Off17: _bool#63 = 1 -> VM3_offer_Storage = 1000
 lc301: _bool#64 = 1 <-> VM3_Offer19 + VM_3 = 2
 Link_Price_VM2_Off18: _bool#64 = 1 -> PriceProv3 = 93
 Link_CPU_VM3_Off18: _bool#64 = 1 -> VM3_offer_CPU = 1
 Link_Mem_VM3_Off18: _bool#64 = 1 -> VM3_offer_Memory = 3750
 Link_Sto_VM3_Off18: _bool#64 = 1 -> VM3_offer_Storage = 1000
 lc306: _bool#65 = 1 <-> VM3_Offer20 + VM_3 = 2
 Link_Price_VM2_Off19: _bool#65 = 1 -> PriceProv3 = 98
 Link_CPU_VM3_Off19: _bool#65 = 1 -> VM3_offer_CPU = 1
 Link_Mem_VM3_Off19: _bool#65 = 1 -> VM3_offer_Memory = 3750
 Link_Sto_VM3_Off19: _bool#65 = 1 -> VM3_offer_Storage = 1000
 lc311: _bool#66 = 1 <-> VM4_Offer1 + VM_4 = 2
 Link_Price_VM3_Off0: _bool#66 = 1 -> PriceProv4 = 8403
 Link_CPU_VM4_Off0: _bool#66 = 1 -> VM4_offer_CPU = 64
 Link_Mem_VM4_Off0: _bool#66 = 1 -> VM4_offer_Memory = 976000
 Link_Sto_VM4_Off0: _bool#66 = 1 -> VM4_offer_Storage = 1000
 lc316: _bool#67 = 1 <-> VM4_Offer2 + VM_4 = 2
 Link_Price_VM3_Off1: _bool#67 = 1 -> PriceProv4 = 9152
 Link_CPU_VM4_Off1: _bool#67 = 1 -> VM4_offer_CPU = 64
 Link_Mem_VM4_Off1: _bool#67 = 1 -> VM4_offer_Memory = 488000
 Link_Sto_VM4_Off1: _bool#67 = 1 -> VM4_offer_Storage = 8000
 lc321: _bool#68 = 1 <-> VM4_Offer3 + VM_4 = 2
 Link_Price_VM3_Off2: _bool#68 = 1 -> PriceProv4 = 16000
 Link_CPU_VM4_Off2: _bool#68 = 1 -> VM4_offer_CPU = 64
 Link_Mem_VM4_Off2: _bool#68 = 1 -> VM4_offer_Memory = 1952
 Link_Sto_VM4_Off2: _bool#68 = 1 -> VM4_offer_Storage = 1000
 lc326: _bool#69 = 1 <-> VM4_Offer4 + VM_4 = 2
 Link_Price_VM3_Off3: _bool#69 = 1 -> PriceProv4 = 4105
 Link_CPU_VM4_Off3: _bool#69 = 1 -> VM4_offer_CPU = 32
 Link_Mem_VM4_Off3: _bool#69 = 1 -> VM4_offer_Memory = 244000
 Link_Sto_VM4_Off3: _bool#69 = 1 -> VM4_offer_Storage = 2000
 lc331: _bool#70 = 1 <-> VM4_Offer5 + VM_4 = 2
 Link_Price_VM3_Off4: _bool#70 = 1 -> PriceProv4 = 4576
 Link_CPU_VM4_Off4: _bool#70 = 1 -> VM4_offer_CPU = 32
 Link_Mem_VM4_Off4: _bool#70 = 1 -> VM4_offer_Memory = 244000
 Link_Sto_VM4_Off4: _bool#70 = 1 -> VM4_offer_Storage = 4000
 lc336: _bool#71 = 1 <-> VM4_Offer6 + VM_4 = 2
 Link_Price_VM3_Off5: _bool#71 = 1 -> PriceProv4 = 1373
 Link_CPU_VM4_Off5: _bool#71 = 1 -> VM4_offer_CPU = 16
 Link_Mem_VM4_Off5: _bool#71 = 1 -> VM4_offer_Memory = 122000
 Link_Sto_VM4_Off5: _bool#71 = 1 -> VM4_offer_Storage = 2000
 lc341: _bool#72 = 1 <-> VM4_Offer7 + VM_4 = 2
 Link_Price_VM3_Off6: _bool#72 = 1 -> PriceProv4 = 1430
 Link_CPU_VM4_Off6: _bool#72 = 1 -> VM4_offer_CPU = 16
 Link_Mem_VM4_Off6: _bool#72 = 1 -> VM4_offer_Memory = 30000
 Link_Sto_VM4_Off6: _bool#72 = 1 -> VM4_offer_Storage = 2000
 lc346: _bool#73 = 1 <-> VM4_Offer8 + VM_4 = 2
 Link_Price_VM3_Off7: _bool#73 = 1 -> PriceProv4 = 5400
 Link_CPU_VM4_Off7: _bool#73 = 1 -> VM4_offer_CPU = 17
 Link_Mem_VM4_Off7: _bool#73 = 1 -> VM4_offer_Memory = 117000
 Link_Sto_VM4_Off7: _bool#73 = 1 -> VM4_offer_Storage = 24000
 lc351: _bool#74 = 1 <-> VM4_Offer9 + VM_4 = 2
 Link_Price_VM3_Off8: _bool#74 = 1 -> PriceProv4 = 3079
 Link_CPU_VM4_Off8: _bool#74 = 1 -> VM4_offer_CPU = 16
 Link_Mem_VM4_Off8: _bool#74 = 1 -> VM4_offer_Memory = 122000
 Link_Sto_VM4_Off8: _bool#74 = 1 -> VM4_offer_Storage = 1000
 lc356: _bool#75 = 1 <-> VM4_Offer10 + VM_4 = 2
 Link_Price_VM3_Off9: _bool#75 = 1 -> PriceProv4 = 1470
 Link_CPU_VM4_Off9: _bool#75 = 1 -> VM4_offer_CPU = 8
 Link_Mem_VM4_Off9: _bool#75 = 1 -> VM4_offer_Memory = 61000
 Link_Sto_VM4_Off9: _bool#75 = 1 -> VM4_offer_Storage = 6000
 lc361: _bool#76 = 1 <-> VM4_Offer11 + VM_4 = 2
 Link_Price_VM3_Off10: _bool#76 = 1 -> PriceProv4 = 1301
 Link_CPU_VM4_Off10: _bool#76 = 1 -> VM4_offer_CPU = 8
 Link_Mem_VM4_Off10: _bool#76 = 1 -> VM4_offer_Memory = 68400
 Link_Sto_VM4_Off10: _bool#76 = 1 -> VM4_offer_Storage = 2000
 lc366: _bool#77 = 1 <-> VM4_Offer12 + VM_4 = 2
 Link_Price_VM3_Off11: _bool#77 = 1 -> PriceProv4 = 1288
 Link_CPU_VM4_Off11: _bool#77 = 1 -> VM4_offer_CPU = 8
 Link_Mem_VM4_Off11: _bool#77 = 1 -> VM4_offer_Memory = 68400
 Link_Sto_VM4_Off11: _bool#77 = 1 -> VM4_offer_Storage = 2000
 lc371: _bool#78 = 1 <-> VM4_Offer13 + VM_4 = 2
 Link_Price_VM3_Off12: _bool#78 = 1 -> PriceProv4 = 402
 Link_CPU_VM4_Off12: _bool#78 = 1 -> VM4_offer_CPU = 4
 Link_Mem_VM4_Off12: _bool#78 = 1 -> VM4_offer_Memory = 15000
 Link_Sto_VM4_Off12: _bool#78 = 1 -> VM4_offer_Storage = 2000
 lc376: _bool#79 = 1 <-> VM4_Offer14 + VM_4 = 2
 Link_Price_VM3_Off13: _bool#79 = 1 -> PriceProv4 = 827
 Link_CPU_VM4_Off13: _bool#79 = 1 -> VM4_offer_CPU = 4
 Link_Mem_VM4_Off13: _bool#79 = 1 -> VM4_offer_Memory = 30500
 Link_Sto_VM4_Off13: _bool#79 = 1 -> VM4_offer_Storage = 3000
 lc381: _bool#80 = 1 <-> VM4_Offer15 + VM_4 = 2
 Link_Price_VM3_Off14: _bool#80 = 1 -> PriceProv4 = 379
 Link_CPU_VM4_Off14: _bool#80 = 1 -> VM4_offer_CPU = 4
 Link_Mem_VM4_Off14: _bool#80 = 1 -> VM4_offer_Memory = 30500
 Link_Sto_VM4_Off14: _bool#80 = 1 -> VM4_offer_Storage = 1000
 lc386: _bool#81 = 1 <-> VM4_Offer16 + VM_4 = 2
 Link_Price_VM3_Off15: _bool#81 = 1 -> PriceProv4 = 146
 Link_CPU_VM4_Off15: _bool#81 = 1 -> VM4_offer_CPU = 2
 Link_Mem_VM4_Off15: _bool#81 = 1 -> VM4_offer_Memory = 7500
 Link_Sto_VM4_Off15: _bool#81 = 1 -> VM4_offer_Storage = 1000
 lc391: _bool#82 = 1 <-> VM4_Offer17 + VM_4 = 2
 Link_Price_VM3_Off16: _bool#82 = 1 -> PriceProv4 = 128
 Link_CPU_VM4_Off16: _bool#82 = 1 -> VM4_offer_CPU = 2
 Link_Mem_VM4_Off16: _bool#82 = 1 -> VM4_offer_Memory = 3750
 Link_Sto_VM4_Off16: _bool#82 = 1 -> VM4_offer_Storage = 2000
 lc396: _bool#83 = 1 <-> VM4_Offer18 + VM_4 = 2
 Link_Price_VM3_Off17: _bool#83 = 1 -> PriceProv4 = 58
 Link_CPU_VM4_Off17: _bool#83 = 1 -> VM4_offer_CPU = 1
 Link_Mem_VM4_Off17: _bool#83 = 1 -> VM4_offer_Memory = 1700
 Link_Sto_VM4_Off17: _bool#83 = 1 -> VM4_offer_Storage = 1000
 lc401: _bool#84 = 1 <-> VM4_Offer19 + VM_4 = 2
 Link_Price_VM3_Off18: _bool#84 = 1 -> PriceProv4 = 93
 Link_CPU_VM4_Off18: _bool#84 = 1 -> VM4_offer_CPU = 1
 Link_Mem_VM4_Off18: _bool#84 = 1 -> VM4_offer_Memory = 3750
 Link_Sto_VM4_Off18: _bool#84 = 1 -> VM4_offer_Storage = 1000
 lc406: _bool#85 = 1 <-> VM4_Offer20 + VM_4 = 2
 Link_Price_VM3_Off19: _bool#85 = 1 -> PriceProv4 = 98
 Link_CPU_VM4_Off19: _bool#85 = 1 -> VM4_offer_CPU = 1
 Link_Mem_VM4_Off19: _bool#85 = 1 -> VM4_offer_Memory = 3750
 Link_Sto_VM4_Off19: _bool#85 = 1 -> VM4_offer_Storage = 1000
 lc411: _bool#86 = 1 <-> VM5_Offer1 + VM_5 = 2
 Link_Price_VM4_Off0: _bool#86 = 1 -> PriceProv5 = 8403
 Link_CPU_VM5_Off0: _bool#86 = 1 -> VM5_offer_CPU = 64
 Link_Mem_VM5_Off0: _bool#86 = 1 -> VM5_offer_Memory = 976000
 Link_Sto_VM5_Off0: _bool#86 = 1 -> VM5_offer_Storage = 1000
 lc416: _bool#87 = 1 <-> VM5_Offer2 + VM_5 = 2
 Link_Price_VM4_Off1: _bool#87 = 1 -> PriceProv5 = 9152
 Link_CPU_VM5_Off1: _bool#87 = 1 -> VM5_offer_CPU = 64
 Link_Mem_VM5_Off1: _bool#87 = 1 -> VM5_offer_Memory = 488000
 Link_Sto_VM5_Off1: _bool#87 = 1 -> VM5_offer_Storage = 8000
 lc421: _bool#88 = 1 <-> VM5_Offer3 + VM_5 = 2
 Link_Price_VM4_Off2: _bool#88 = 1 -> PriceProv5 = 16000
 Link_CPU_VM5_Off2: _bool#88 = 1 -> VM5_offer_CPU = 64
 Link_Mem_VM5_Off2: _bool#88 = 1 -> VM5_offer_Memory = 1952
 Link_Sto_VM5_Off2: _bool#88 = 1 -> VM5_offer_Storage = 1000
 lc426: _bool#89 = 1 <-> VM5_Offer4 + VM_5 = 2
 Link_Price_VM4_Off3: _bool#89 = 1 -> PriceProv5 = 4105
 Link_CPU_VM5_Off3: _bool#89 = 1 -> VM5_offer_CPU = 32
 Link_Mem_VM5_Off3: _bool#89 = 1 -> VM5_offer_Memory = 244000
 Link_Sto_VM5_Off3: _bool#89 = 1 -> VM5_offer_Storage = 2000
 lc431: _bool#90 = 1 <-> VM5_Offer5 + VM_5 = 2
 Link_Price_VM4_Off4: _bool#90 = 1 -> PriceProv5 = 4576
 Link_CPU_VM5_Off4: _bool#90 = 1 -> VM5_offer_CPU = 32
 Link_Mem_VM5_Off4: _bool#90 = 1 -> VM5_offer_Memory = 244000
 Link_Sto_VM5_Off4: _bool#90 = 1 -> VM5_offer_Storage = 4000
 lc436: _bool#91 = 1 <-> VM5_Offer6 + VM_5 = 2
 Link_Price_VM4_Off5: _bool#91 = 1 -> PriceProv5 = 1373
 Link_CPU_VM5_Off5: _bool#91 = 1 -> VM5_offer_CPU = 16
 Link_Mem_VM5_Off5: _bool#91 = 1 -> VM5_offer_Memory = 122000
 Link_Sto_VM5_Off5: _bool#91 = 1 -> VM5_offer_Storage = 2000
 lc441: _bool#92 = 1 <-> VM5_Offer7 + VM_5 = 2
 Link_Price_VM4_Off6: _bool#92 = 1 -> PriceProv5 = 1430
 Link_CPU_VM5_Off6: _bool#92 = 1 -> VM5_offer_CPU = 16
 Link_Mem_VM5_Off6: _bool#92 = 1 -> VM5_offer_Memory = 30000
 Link_Sto_VM5_Off6: _bool#92 = 1 -> VM5_offer_Storage = 2000
 lc446: _bool#93 = 1 <-> VM5_Offer8 + VM_5 = 2
 Link_Price_VM4_Off7: _bool#93 = 1 -> PriceProv5 = 5400
 Link_CPU_VM5_Off7: _bool#93 = 1 -> VM5_offer_CPU = 17
 Link_Mem_VM5_Off7: _bool#93 = 1 -> VM5_offer_Memory = 117000
 Link_Sto_VM5_Off7: _bool#93 = 1 -> VM5_offer_Storage = 24000
 lc451: _bool#94 = 1 <-> VM5_Offer9 + VM_5 = 2
 Link_Price_VM4_Off8: _bool#94 = 1 -> PriceProv5 = 3079
 Link_CPU_VM5_Off8: _bool#94 = 1 -> VM5_offer_CPU = 16
 Link_Mem_VM5_Off8: _bool#94 = 1 -> VM5_offer_Memory = 122000
 Link_Sto_VM5_Off8: _bool#94 = 1 -> VM5_offer_Storage = 1000
 lc456: _bool#95 = 1 <-> VM5_Offer10 + VM_5 = 2
 Link_Price_VM4_Off9: _bool#95 = 1 -> PriceProv5 = 1470
 Link_CPU_VM5_Off9: _bool#95 = 1 -> VM5_offer_CPU = 8
 Link_Mem_VM5_Off9: _bool#95 = 1 -> VM5_offer_Memory = 61000
 Link_Sto_VM5_Off9: _bool#95 = 1 -> VM5_offer_Storage = 6000
 lc461: _bool#96 = 1 <-> VM5_Offer11 + VM_5 = 2
 Link_Price_VM4_Off10: _bool#96 = 1 -> PriceProv5 = 1301
 Link_CPU_VM5_Off10: _bool#96 = 1 -> VM5_offer_CPU = 8
 Link_Mem_VM5_Off10: _bool#96 = 1 -> VM5_offer_Memory = 68400
 Link_Sto_VM5_Off10: _bool#96 = 1 -> VM5_offer_Storage = 2000
 lc466: _bool#97 = 1 <-> VM5_Offer12 + VM_5 = 2
 Link_Price_VM4_Off11: _bool#97 = 1 -> PriceProv5 = 1288
 Link_CPU_VM5_Off11: _bool#97 = 1 -> VM5_offer_CPU = 8
 Link_Mem_VM5_Off11: _bool#97 = 1 -> VM5_offer_Memory = 68400
 Link_Sto_VM5_Off11: _bool#97 = 1 -> VM5_offer_Storage = 2000
 lc471: _bool#98 = 1 <-> VM5_Offer13 + VM_5 = 2
 Link_Price_VM4_Off12: _bool#98 = 1 -> PriceProv5 = 402
 Link_CPU_VM5_Off12: _bool#98 = 1 -> VM5_offer_CPU = 4
 Link_Mem_VM5_Off12: _bool#98 = 1 -> VM5_offer_Memory = 15000
 Link_Sto_VM5_Off12: _bool#98 = 1 -> VM5_offer_Storage = 2000
 lc476: _bool#99 = 1 <-> VM5_Offer14 + VM_5 = 2
 Link_Price_VM4_Off13: _bool#99 = 1 -> PriceProv5 = 827
 Link_CPU_VM5_Off13: _bool#99 = 1 -> VM5_offer_CPU = 4
 Link_Mem_VM5_Off13: _bool#99 = 1 -> VM5_offer_Memory = 30500
 Link_Sto_VM5_Off13: _bool#99 = 1 -> VM5_offer_Storage = 3000
 lc481: _bool#100 = 1 <-> VM5_Offer15 + VM_5 = 2
 Link_Price_VM4_Off14: _bool#100 = 1 -> PriceProv5 = 379
 Link_CPU_VM5_Off14: _bool#100 = 1 -> VM5_offer_CPU = 4
 Link_Mem_VM5_Off14: _bool#100 = 1 -> VM5_offer_Memory = 30500
 Link_Sto_VM5_Off14: _bool#100 = 1 -> VM5_offer_Storage = 1000
 lc486: _bool#101 = 1 <-> VM5_Offer16 + VM_5 = 2
 Link_Price_VM4_Off15: _bool#101 = 1 -> PriceProv5 = 146
 Link_CPU_VM5_Off15: _bool#101 = 1 -> VM5_offer_CPU = 2
 Link_Mem_VM5_Off15: _bool#101 = 1 -> VM5_offer_Memory = 7500
 Link_Sto_VM5_Off15: _bool#101 = 1 -> VM5_offer_Storage = 1000
 lc491: _bool#102 = 1 <-> VM5_Offer17 + VM_5 = 2
 Link_Price_VM4_Off16: _bool#102 = 1 -> PriceProv5 = 128
 Link_CPU_VM5_Off16: _bool#102 = 1 -> VM5_offer_CPU = 2
 Link_Mem_VM5_Off16: _bool#102 = 1 -> VM5_offer_Memory = 3750
 Link_Sto_VM5_Off16: _bool#102 = 1 -> VM5_offer_Storage = 2000
 lc496: _bool#103 = 1 <-> VM5_Offer18 + VM_5 = 2
 Link_Price_VM4_Off17: _bool#103 = 1 -> PriceProv5 = 58
 Link_CPU_VM5_Off17: _bool#103 = 1 -> VM5_offer_CPU = 1
 Link_Mem_VM5_Off17: _bool#103 = 1 -> VM5_offer_Memory = 1700
 Link_Sto_VM5_Off17: _bool#103 = 1 -> VM5_offer_Storage = 1000
 lc501: _bool#104 = 1 <-> VM5_Offer19 + VM_5 = 2
 Link_Price_VM4_Off18: _bool#104 = 1 -> PriceProv5 = 93
 Link_CPU_VM5_Off18: _bool#104 = 1 -> VM5_offer_CPU = 1
 Link_Mem_VM5_Off18: _bool#104 = 1 -> VM5_offer_Memory = 3750
 Link_Sto_VM5_Off18: _bool#104 = 1 -> VM5_offer_Storage = 1000
 lc506: _bool#105 = 1 <-> VM5_Offer20 + VM_5 = 2
 Link_Price_VM4_Off19: _bool#105 = 1 -> PriceProv5 = 98
 Link_CPU_VM5_Off19: _bool#105 = 1 -> VM5_offer_CPU = 1
 Link_Mem_VM5_Off19: _bool#105 = 1 -> VM5_offer_Memory = 3750
 Link_Sto_VM5_Off19: _bool#105 = 1 -> VM5_offer_Storage = 1000
 Deactivation_0: VM_1 = 0 -> PriceProv1 = 0
 Deactivation_1: VM_2 = 0 -> PriceProv2 = 0
 Deactivation_2: VM_3 = 0 -> PriceProv3 = 0
 Deactivation_3: VM_4 = 0 -> PriceProv4 = 0
 Deactivation_4: VM_5 = 0 -> PriceProv5 = 0

Bounds
 0 <= C1_VM1 <= 1
 0 <= C1_VM2 <= 1
 0 <= C1_VM3 <= 1
 0 <= C1_VM4 <= 1
 0 <= C1_VM5 <= 1
 0 <= C2_VM1 <= 1
 0 <= C2_VM2 <= 1
 0 <= C2_VM3 <= 1
 0 <= C2_VM4 <= 1
 0 <= C2_VM5 <= 1
 0 <= C3_VM1 <= 1
 0 <= C3_VM2 <= 1
 0 <= C3_VM3 <= 1
 0 <= C3_VM4 <= 1
 0 <= C3_VM5 <= 1
 0 <= C4_VM1 <= 1
 0 <= C4_VM2 <= 1
 0 <= C4_VM3 <= 1
 0 <= C4_VM4 <= 1
 0 <= C4_VM5 <= 1
 0 <= C5_VM1 <= 1
 0 <= C5_VM2 <= 1
 0 <= C5_VM3 <= 1
 0 <= C5_VM4 <= 1
 0 <= C5_VM5 <= 1
 0 <= VM1_Offer1 <= 1
 0 <= VM1_Offer2 <= 1
 0 <= VM1_Offer3 <= 1
 0 <= VM1_Offer4 <= 1
 0 <= VM1_Offer5 <= 1
 0 <= VM1_Offer6 <= 1
 0 <= VM1_Offer7 <= 1
 0 <= VM1_Offer8 <= 1
 0 <= VM1_Offer9 <= 1
 0 <= VM1_Offer10 <= 1
 0 <= VM1_Offer11 <= 1
 0 <= VM1_Offer12 <= 1
 0 <= VM1_Offer13 <= 1
 0 <= VM1_Offer14 <= 1
 0 <= VM1_Offer15 <= 1
 0 <= VM1_Offer16 <= 1
 0 <= VM1_Offer17 <= 1
 0 <= VM1_Offer18 <= 1
 0 <= VM1_Offer19 <= 1
 0 <= VM1_Offer20 <= 1
 0 <= VM2_Offer1 <= 1
 0 <= VM2_Offer2 <= 1
 0 <= VM2_Offer3 <= 1
 0 <= VM2_Offer4 <= 1
 0 <= VM2_Offer5 <= 1
 0 <= VM2_Offer6 <= 1
 0 <= VM2_Offer7 <= 1
 0 <= VM2_Offer8 <= 1
 0 <= VM2_Offer9 <= 1
 0 <= VM2_Offer10 <= 1
 0 <= VM2_Offer11 <= 1
 0 <= VM2_Offer12 <= 1
 0 <= VM2_Offer13 <= 1
 0 <= VM2_Offer14 <= 1
 0 <= VM2_Offer15 <= 1
 0 <= VM2_Offer16 <= 1
 0 <= VM2_Offer17 <= 1
 0 <= VM2_Offer18 <= 1
 0 <= VM2_Offer19 <= 1
 0 <= VM2_Offer20 <= 1
 0 <= VM3_Offer1 <= 1
 0 <= VM3_Offer2 <= 1
 0 <= VM3_Offer3 <= 1
 0 <= VM3_Offer4 <= 1
 0 <= VM3_Offer5 <= 1
 0 <= VM3_Offer6 <= 1
 0 <= VM3_Offer7 <= 1
 0 <= VM3_Offer8 <= 1
 0 <= VM3_Offer9 <= 1
 0 <= VM3_Offer10 <= 1
 0 <= VM3_Offer11 <= 1
 0 <= VM3_Offer12 <= 1
 0 <= VM3_Offer13 <= 1
 0 <= VM3_Offer14 <= 1
 0 <= VM3_Offer15 <= 1
 0 <= VM3_Offer16 <= 1
 0 <= VM3_Offer17 <= 1
 0 <= VM3_Offer18 <= 1
 0 <= VM3_Offer19 <= 1
 0 <= VM3_Offer20 <= 1
 0 <= VM4_Offer1 <= 1
 0 <= VM4_Offer2 <= 1
 0 <= VM4_Offer3 <= 1
 0 <= VM4_Offer4 <= 1
 0 <= VM4_Offer5 <= 1
 0 <= VM4_Offer6 <= 1
 0 <= VM4_Offer7 <= 1
 0 <= VM4_Offer8 <= 1
 0 <= VM4_Offer9 <= 1
 0 <= VM4_Offer10 <= 1
 0 <= VM4_Offer11 <= 1
 0 <= VM4_Offer12 <= 1
 0 <= VM4_Offer13 <= 1
 0 <= VM4_Offer14 <= 1
 0 <= VM4_Offer15 <= 1
 0 <= VM4_Offer16 <= 1
 0 <= VM4_Offer17 <= 1
 0 <= VM4_Offer18 <= 1
 0 <= VM4_Offer19 <= 1
 0 <= VM4_Offer20 <= 1
 0 <= VM5_Offer1 <= 1
 0 <= VM5_Offer2 <= 1
 0 <= VM5_Offer3 <= 1
 0 <= VM5_Offer4 <= 1
 0 <= VM5_Offer5 <= 1
 0 <= VM5_Offer6 <= 1
 0 <= VM5_Offer7 <= 1
 0 <= VM5_Offer8 <= 1
 0 <= VM5_Offer9 <= 1
 0 <= VM5_Offer10 <= 1
 0 <= VM5_Offer11 <= 1
 0 <= VM5_Offer12 <= 1
 0 <= VM5_Offer13 <= 1
 0 <= VM5_Offer14 <= 1
 0 <= VM5_Offer15 <= 1
 0 <= VM5_Offer16 <= 1
 0 <= VM5_Offer17 <= 1
 0 <= VM5_Offer18 <= 1
 0 <= VM5_Offer19 <= 1
 0 <= VM5_Offer20 <= 1
 0 <= VM_1 <= 1
 0 <= VM_2 <= 1
 0 <= VM_3 <= 1
 0 <= VM_4 <= 1
 0 <= VM_5 <= 1
 0 <= _bool#1 <= 1
 0 <= _bool#2 <= 1
 0 <= _bool#3 <= 1
 0 <= _bool#4 <= 1
 0 <= _bool#5 <= 1
 0 <= _bool#6 <= 1
 0 <= _bool#7 <= 1
 0 <= _bool#8 <= 1
 0 <= _bool#9 <= 1
 0 <= _bool#10 <= 1
 0 <= _bool#11 <= 1
 0 <= _bool#12 <= 1
 0 <= _bool#13 <= 1
 0 <= _bool#14 <= 1
 0 <= _bool#15 <= 1
 0 <= _bool#16 <= 1
 0 <= _bool#17 <= 1
 0 <= _bool#18 <= 1
 0 <= _bool#19 <= 1
 0 <= _bool#20 <= 1
 0 <= _bool#21 <= 1
 0 <= _bool#22 <= 1
 0 <= _bool#23 <= 1
 0 <= _bool#24 <= 1
 0 <= _bool#25 <= 1
 0 <= _bool#26 <= 1
 0 <= _bool#27 <= 1
 0 <= _bool#28 <= 1
 0 <= _bool#29 <= 1
 0 <= _bool#30 <= 1
 0 <= _bool#31 <= 1
 0 <= _bool#32 <= 1
 0 <= _bool#33 <= 1
 0 <= _bool#34 <= 1
 0 <= _bool#35 <= 1
 0 <= _bool#36 <= 1
 0 <= _bool#37 <= 1
 0 <= _bool#38 <= 1
 0 <= _bool#39 <= 1
 0 <= _bool#40 <= 1
 0 <= _bool#41 <= 1
 0 <= _bool#42 <= 1
 0 <= _bool#43 <= 1
 0 <= _bool#44 <= 1
 0 <= _bool#45 <= 1
 0 <= _bool#46 <= 1
 0 <= _bool#47 <= 1
 0 <= _bool#48 <= 1
 0 <= _bool#49 <= 1
 0 <= _bool#50 <= 1
 0 <= _bool#51 <= 1
 0 <= _bool#52 <= 1
 0 <= _bool#53 <= 1
 0 <= _bool#54 <= 1
 0 <= _bool#55 <= 1
 0 <= _bool#56 <= 1
 0 <= _bool#57 <= 1
 0 <= _bool#58 <= 1
 0 <= _bool#59 <= 1
 0 <= _bool#60 <= 1
 0 <= _bool#61 <= 1
 0 <= _bool#62 <= 1
 0 <= _bool#63 <= 1
 0 <= _bool#64 <= 1
 0 <= _bool#65 <= 1
 0 <= _bool#66 <= 1
 0 <= _bool#67 <= 1
 0 <= _bool#68 <= 1
 0 <= _bool#69 <= 1
 0 <= _bool#70 <= 1
 0 <= _bool#71 <= 1
 0 <= _bool#72 <= 1
 0 <= _bool#73 <= 1
 0 <= _bool#74 <= 1
 0 <= _bool#75 <= 1
 0 <= _bool#76 <= 1
 0 <= _bool#77 <= 1
 0 <= _bool#78 <= 1
 0 <= _bool#79 <= 1
 0 <= _bool#80 <= 1
 0 <= _bool#81 <= 1
 0 <= _bool#82 <= 1
 0 <= _bool#83 <= 1
 0 <= _bool#84 <= 1
 0 <= _bool#85 <= 1
 0 <= _bool#86 <= 1
 0 <= _bool#87 <= 1
 0 <= _bool#88 <= 1
 0 <= _bool#89 <= 1
 0 <= _bool#90 <= 1
 0 <= _bool#91 <= 1
 0 <= _bool#92 <= 1
 0 <= _bool#93 <= 1
 0 <= _bool#94 <= 1
 0 <= _bool#95 <= 1
 0 <= _bool#96 <= 1
 0 <= _bool#97 <= 1
 0 <= _bool#98 <= 1
 0 <= _bool#99 <= 1
 0 <= _bool#100 <= 1
 0 <= _bool#101 <= 1
 0 <= _bool#102 <= 1
 0 <= _bool#103 <= 1
 0 <= _bool#104 <= 1
 0 <= _bool#105 <= 1

Binaries
 C1_VM1 C1_VM2 C1_VM3 C1_VM4 C1_VM5 C2_VM1 C2_VM2 C2_VM3 C2_VM4 C2_VM5 C3_VM1
 C3_VM2 C3_VM3 C3_VM4 C3_VM5 C4_VM1 C4_VM2 C4_VM3 C4_VM4 C4_VM5 C5_VM1 C5_VM2
 C5_VM3 C5_VM4 C5_VM5 VM1_Offer1 VM1_Offer2 VM1_Offer3 VM1_Offer4 VM1_Offer5
 VM1_Offer6 VM1_Offer7 VM1_Offer8 VM1_Offer9 VM1_Offer10 VM1_Offer11 VM1_Offer12
 VM1_Offer13 VM1_Offer14 VM1_Offer15 VM1_Offer16 VM1_Offer17 VM1_Offer18
 VM1_Offer19 VM1_Offer20 VM2_Offer1 VM2_Offer2 VM2_Offer3 VM2_Offer4 VM2_Offer5
 VM2_Offer6 VM2_Offer7 VM2_Offer8 VM2_Offer9 VM2_Offer10 VM2_Offer11 VM2_Offer12
 VM2_Offer13 VM2_Offer14 VM2_Offer15 VM2_Offer16 VM2_Offer17 VM2_Offer18
 VM2_Offer19 VM2_Offer20 VM3_Offer1 VM3_Offer2 VM3_Offer3 VM3_Offer4 VM3_Offer5
 VM3_Offer6 VM3_Offer7 VM3_Offer8 VM3_Offer9 VM3_Offer10 VM3_Offer11 VM3_Offer12
 VM3_Offer13 VM3_Offer14 VM3_Offer15 VM3_Offer16 VM3_Offer17 VM3_Offer18
 VM3_Offer19 VM3_Offer20 VM4_Offer1 VM4_Offer2 VM4_Offer3 VM4_Offer4 VM4_Offer5
 VM4_Offer6 VM4_Offer7 VM4_Offer8 VM4_Offer9 VM4_Offer10 VM4_Offer11 VM4_Offer12
 VM4_Offer13 VM4_Offer14 VM4_Offer15 VM4_Offer16 VM4_Offer17 VM4_Offer18
 VM4_Offer19 VM4_Offer20 VM5_Offer1 VM5_Offer2 VM5_Offer3 VM5_Offer4 VM5_Offer5
 VM5_Offer6 VM5_Offer7 VM5_Offer8 VM5_Offer9 VM5_Offer10 VM5_Offer11 VM5_Offer12
 VM5_Offer13 VM5_Offer14 VM5_Offer15 VM5_Offer16 VM5_Offer17 VM5_Offer18
 VM5_Offer19 VM5_Offer20 VM_1 VM_2 VM_3 VM_4 VM_5 _bool#1 _bool#2 _bool#3
 _bool#4 _bool#5 _bool#6 _bool#7 _bool#8 _bool#9 _bool#10 _bool#11 _bool#12
 _bool#13 _bool#14 _bool#15 _bool#16 _bool#17 _bool#18 _bool#19 _bool#20
 _bool#21 _bool#22 _bool#23 _bool#24 _bool#25 _bool#26 _bool#27 _bool#28
 _bool#29 _bool#30 _bool#31 _bool#32 _bool#33 _bool#34 _bool#35 _bool#36
 _bool#37 _bool#38 _bool#39 _bool#40 _bool#41 _bool#42 _bool#43 _bool#44
 _bool#45 _bool#46 _bool#47 _bool#48 _bool#49 _bool#50 _bool#51 _bool#52
 _bool#53 _bool#54 _bool#55 _bool#56 _bool#57 _bool#58 _bool#59 _bool#60
 _bool#61 _bool#62 _bool#63 _bool#64 _bool#65 _bool#66 _bool#67 _bool#68
 _bool#69 _bool#70 _bool#71 _bool#72 _bool#73 _bool#74 _bool#75 _bool#76
 _bool#77 _bool#78 _bool#79 _bool#80 _bool#81 _bool#82 _bool#83 _bool#84
 _bool#85 _bool#86 _bool#87 _bool#88 _bool#89 _bool#90 _bool#91 _bool#92
 _bool#93 _bool#94 _bool#95 _bool#96 _bool#97 _bool#98 _bool#99 _bool#100
 _bool#101 _bool#102 _bool#103 _bool#104 _bool#105

Generals
 VM1_offer_CPU VM1_offer_Memory VM1_offer_Storage VM2_offer_CPU VM2_offer_Memory
 VM2_offer_Storage VM3_offer_CPU VM3_offer_Memory VM3_offer_Storage
 VM4_offer_CPU VM4_offer_Memory VM4_offer_Storage VM5_offer_CPU VM5_offer_Memory
 VM5_offer_Storage
End
